\* column_knapsack_problem *\
Minimize
knapsack: 33 col_0 + 31 col_1 + 35 col_10 + 26 col_100 + 11 col_101
 + 34 col_102 + 29 col_103 + 34 col_104 + 35 col_105 + 33 col_106 + 29 col_107
 + 32 col_108 + 29 col_109 + 33 col_11 + 30 col_110 + 31 col_111 + 34 col_112
 + 34 col_113 + 31 col_114 + 32 col_115 + 34 col_116 + 34 col_117 + 34 col_118
 + 32 col_119 + 26 col_12 + 33 col_120 + 31 col_121 + 33 col_122 + 28 col_123
 + 31 col_124 + 34 col_125 + 34 col_126 + 35 col_127 + 35 col_128 + 34 col_129
 + 35 col_13 + 30 col_130 + 32 col_131 + 34 col_132 + 34 col_133 + 30 col_134
 + 35 col_135 + 28 col_136 + 25 col_137 + 25 col_138 + 25 col_139 + 36 col_14
 + 25 col_140 + 30 col_141 + 28 col_142 + 27 col_143 + 33 col_144 + 33 col_145
 + 35 col_146 + 30 col_147 + 35 col_148 + 34 col_149 + 27 col_15 + 35 col_150
 + 35 col_151 + 31 col_152 + 32 col_153 + 31 col_154 + 30 col_155 + 33 col_156
 + 28 col_157 + 34 col_158 + 29 col_159 + 32 col_16 + 32 col_160 + 33 col_161
 + 32 col_162 + 31 col_163 + 29 col_164 + 31 col_165 + 30 col_166 + 32 col_167
 + 32 col_168 + 18 col_169 + 34 col_17 + 25 col_170 + 33 col_171 + 32 col_172
 + 29 col_173 + 26 col_174 + 27 col_175 + 32 col_176 + 26 col_177 + 31 col_178
 + 30 col_179 + 32 col_18 + 33 col_180 + 35 col_181 + 32 col_182 + 36 col_183
 + 33 col_184 + 34 col_185 + 34 col_186 + 23 col_187 + 32 col_188 + 34 col_189
 + 33 col_19 + 32 col_190 + 34 col_191 + 24 col_192 + 34 col_193 + 30 col_194
 + 28 col_195 + 34 col_196 + 28 col_197 + 28 col_198 + 32 col_199 + 32 col_2
 + 34 col_20 + 32 col_21 + 34 col_22 + 33 col_23 + 33 col_24 + 30 col_25
 + 31 col_26 + 33 col_27 + 33 col_28 + 36 col_29 + 33 col_3 + 33 col_30
 + 34 col_31 + 26 col_32 + 33 col_33 + 30 col_34 + 32 col_35 + 34 col_36
 + 36 col_37 + 25 col_38 + 32 col_39 + 26 col_4 + 31 col_40 + 34 col_41
 + 25 col_42 + 25 col_43 + 26 col_44 + 29 col_45 + 30 col_46 + 24 col_47
 + 29 col_48 + 27 col_49 + 28 col_5 + 27 col_50 + 33 col_51 + 33 col_52
 + 33 col_53 + 34 col_54 + 34 col_55 + 34 col_56 + 32 col_57 + 34 col_58
 + 34 col_59 + 33 col_6 + 32 col_60 + 33 col_61 + 32 col_62 + 32 col_63
 + 32 col_64 + 32 col_65 + 28 col_66 + 33 col_67 + 31 col_68 + 30 col_69
 + 34 col_7 + 32 col_70 + 32 col_71 + 32 col_72 + 31 col_73 + 32 col_74
 + 24 col_75 + 33 col_76 + 31 col_77 + 32 col_78 + 29 col_79 + 34 col_8
 + 33 col_80 + 34 col_81 + 34 col_82 + 30 col_83 + 34 col_84 + 31 col_85
 + 30 col_86 + 29 col_87 + 33 col_88 + 33 col_89 + 33 col_9 + 30 col_90
 + 30 col_91 + 33 col_92 + 33 col_93 + 33 col_94 + 33 col_95 + 32 col_96
 + 34 col_97 + 32 col_98 + 28 col_99
Subject To
sensitivity: 4 col_0 + 6 col_1 + 2 col_10 + 11 col_100 + 26 col_101
 + 3 col_102 + 8 col_103 + 3 col_104 + 2 col_105 + 4 col_106 + 8 col_107
 + 5 col_108 + 8 col_109 + 4 col_11 + 7 col_110 + 6 col_111 + 3 col_112
 + 3 col_113 + 6 col_114 + 5 col_115 + 3 col_116 + 3 col_117 + 3 col_118
 + 5 col_119 + 11 col_12 + 4 col_120 + 6 col_121 + 4 col_122 + 9 col_123
 + 6 col_124 + 3 col_125 + 3 col_126 + 2 col_127 + 2 col_128 + 3 col_129
 + 2 col_13 + 7 col_130 + 5 col_131 + 3 col_132 + 3 col_133 + 7 col_134
 + 2 col_135 + 9 col_136 + 12 col_137 + 12 col_138 + 12 col_139 + col_14
 + 12 col_140 + 7 col_141 + 9 col_142 + 10 col_143 + 4 col_144 + 4 col_145
 + 2 col_146 + 7 col_147 + 2 col_148 + 3 col_149 + 10 col_15 + 2 col_150
 + 2 col_151 + 6 col_152 + 5 col_153 + 6 col_154 + 7 col_155 + 4 col_156
 + 9 col_157 + 3 col_158 + 8 col_159 + 5 col_16 + 5 col_160 + 4 col_161
 + 5 col_162 + 6 col_163 + 8 col_164 + 6 col_165 + 7 col_166 + 5 col_167
 + 5 col_168 + 19 col_169 + 3 col_17 + 12 col_170 + 4 col_171 + 5 col_172
 + 8 col_173 + 11 col_174 + 10 col_175 + 5 col_176 + 11 col_177 + 6 col_178
 + 7 col_179 + 5 col_18 + 4 col_180 + 2 col_181 + 5 col_182 + col_183
 + 4 col_184 + 3 col_185 + 3 col_186 + 14 col_187 + 5 col_188 + 3 col_189
 + 4 col_19 + 5 col_190 + 3 col_191 + 13 col_192 + 3 col_193 + 7 col_194
 + 9 col_195 + 3 col_196 + 9 col_197 + 9 col_198 + 5 col_199 + 5 col_2
 + 3 col_20 + 5 col_21 + 3 col_22 + 4 col_23 + 4 col_24 + 7 col_25 + 6 col_26
 + 4 col_27 + 4 col_28 + col_29 + 4 col_3 + 4 col_30 + 3 col_31 + 11 col_32
 + 4 col_33 + 7 col_34 + 5 col_35 + 3 col_36 + col_37 + 12 col_38 + 5 col_39
 + 11 col_4 + 6 col_40 + 3 col_41 + 12 col_42 + 12 col_43 + 11 col_44
 + 8 col_45 + 7 col_46 + 13 col_47 + 8 col_48 + 10 col_49 + 9 col_5
 + 10 col_50 + 4 col_51 + 4 col_52 + 4 col_53 + 3 col_54 + 3 col_55 + 3 col_56
 + 5 col_57 + 3 col_58 + 3 col_59 + 4 col_6 + 5 col_60 + 4 col_61 + 5 col_62
 + 5 col_63 + 5 col_64 + 5 col_65 + 9 col_66 + 4 col_67 + 6 col_68 + 7 col_69
 + 3 col_7 + 5 col_70 + 5 col_71 + 5 col_72 + 6 col_73 + 5 col_74 + 13 col_75
 + 4 col_76 + 6 col_77 + 5 col_78 + 8 col_79 + 3 col_8 + 4 col_80 + 3 col_81
 + 3 col_82 + 7 col_83 + 3 col_84 + 6 col_85 + 7 col_86 + 8 col_87 + 4 col_88
 + 4 col_89 + 4 col_9 + 7 col_90 + 7 col_91 + 4 col_92 + 4 col_93 + 4 col_94
 + 4 col_95 + 5 col_96 + 3 col_97 + 5 col_98 + 9 col_99 >= 576.5
Binaries
col_0
col_1
col_10
col_100
col_101
col_102
col_103
col_104
col_105
col_106
col_107
col_108
col_109
col_11
col_110
col_111
col_112
col_113
col_114
col_115
col_116
col_117
col_118
col_119
col_12
col_120
col_121
col_122
col_123
col_124
col_125
col_126
col_127
col_128
col_129
col_13
col_130
col_131
col_132
col_133
col_134
col_135
col_136
col_137
col_138
col_139
col_14
col_140
col_141
col_142
col_143
col_144
col_145
col_146
col_147
col_148
col_149
col_15
col_150
col_151
col_152
col_153
col_154
col_155
col_156
col_157
col_158
col_159
col_16
col_160
col_161
col_162
col_163
col_164
col_165
col_166
col_167
col_168
col_169
col_17
col_170
col_171
col_172
col_173
col_174
col_175
col_176
col_177
col_178
col_179
col_18
col_180
col_181
col_182
col_183
col_184
col_185
col_186
col_187
col_188
col_189
col_19
col_190
col_191
col_192
col_193
col_194
col_195
col_196
col_197
col_198
col_199
col_2
col_20
col_21
col_22
col_23
col_24
col_25
col_26
col_27
col_28
col_29
col_3
col_30
col_31
col_32
col_33
col_34
col_35
col_36
col_37
col_38
col_39
col_4
col_40
col_41
col_42
col_43
col_44
col_45
col_46
col_47
col_48
col_49
col_5
col_50
col_51
col_52
col_53
col_54
col_55
col_56
col_57
col_58
col_59
col_6
col_60
col_61
col_62
col_63
col_64
col_65
col_66
col_67
col_68
col_69
col_7
col_70
col_71
col_72
col_73
col_74
col_75
col_76
col_77
col_78
col_79
col_8
col_80
col_81
col_82
col_83
col_84
col_85
col_86
col_87
col_88
col_89
col_9
col_90
col_91
col_92
col_93
col_94
col_95
col_96
col_97
col_98
col_99
End
